c description: Subset cardinality formula for fast_gnp_random_graph(4,10,0.8)
c generator: CNFgen (0.9.0)
c copyright: (C) 2012-2020 Massimo Lauria <massimo.lauria@uniroma1.it>
c url: https://massimolauria.net/cnfgen
c
p cnf 36 554
1 2 3 4 5 0
1 2 3 4 6 0
1 2 3 4 7 0
1 2 3 4 8 0
1 2 3 4 9 0
1 2 3 5 6 0
1 2 3 5 7 0
1 2 3 5 8 0
1 2 3 5 9 0
1 2 3 6 7 0
1 2 3 6 8 0
1 2 3 6 9 0
1 2 3 7 8 0
1 2 3 7 9 0
1 2 3 8 9 0
1 2 4 5 6 0
1 2 4 5 7 0
1 2 4 5 8 0
1 2 4 5 9 0
1 2 4 6 7 0
1 2 4 6 8 0
1 2 4 6 9 0
1 2 4 7 8 0
1 2 4 7 9 0
1 2 4 8 9 0
1 2 5 6 7 0
1 2 5 6 8 0
1 2 5 6 9 0
1 2 5 7 8 0
1 2 5 7 9 0
1 2 5 8 9 0
1 2 6 7 8 0
1 2 6 7 9 0
1 2 6 8 9 0
1 2 7 8 9 0
1 3 4 5 6 0
1 3 4 5 7 0
1 3 4 5 8 0
1 3 4 5 9 0
1 3 4 6 7 0
1 3 4 6 8 0
1 3 4 6 9 0
1 3 4 7 8 0
1 3 4 7 9 0
1 3 4 8 9 0
1 3 5 6 7 0
1 3 5 6 8 0
1 3 5 6 9 0
1 3 5 7 8 0
1 3 5 7 9 0
1 3 5 8 9 0
1 3 6 7 8 0
1 3 6 7 9 0
1 3 6 8 9 0
1 3 7 8 9 0
1 4 5 6 7 0
1 4 5 6 8 0
1 4 5 6 9 0
1 4 5 7 8 0
1 4 5 7 9 0
1 4 5 8 9 0
1 4 6 7 8 0
1 4 6 7 9 0
1 4 6 8 9 0
1 4 7 8 9 0
1 5 6 7 8 0
1 5 6 7 9 0
1 5 6 8 9 0
1 5 7 8 9 0
1 6 7 8 9 0
2 3 4 5 6 0
2 3 4 5 7 0
2 3 4 5 8 0
2 3 4 5 9 0
2 3 4 6 7 0
2 3 4 6 8 0
2 3 4 6 9 0
2 3 4 7 8 0
2 3 4 7 9 0
2 3 4 8 9 0
2 3 5 6 7 0
2 3 5 6 8 0
2 3 5 6 9 0
2 3 5 7 8 0
2 3 5 7 9 0
2 3 5 8 9 0
2 3 6 7 8 0
2 3 6 7 9 0
2 3 6 8 9 0
2 3 7 8 9 0
2 4 5 6 7 0
2 4 5 6 8 0
2 4 5 6 9 0
2 4 5 7 8 0
2 4 5 7 9 0
2 4 5 8 9 0
2 4 6 7 8 0
2 4 6 7 9 0
2 4 6 8 9 0
2 4 7 8 9 0
2 5 6 7 8 0
2 5 6 7 9 0
2 5 6 8 9 0
2 5 7 8 9 0
2 6 7 8 9 0
3 4 5 6 7 0
3 4 5 6 8 0
3 4 5 6 9 0
3 4 5 7 8 0
3 4 5 7 9 0
3 4 5 8 9 0
3 4 6 7 8 0
3 4 6 7 9 0
3 4 6 8 9 0
3 4 7 8 9 0
3 5 6 7 8 0
3 5 6 7 9 0
3 5 6 8 9 0
3 5 7 8 9 0
3 6 7 8 9 0
4 5 6 7 8 0
4 5 6 7 9 0
4 5 6 8 9 0
4 5 7 8 9 0
4 6 7 8 9 0
5 6 7 8 9 0
10 11 12 13 14 0
10 11 12 13 15 0
10 11 12 13 16 0
10 11 12 13 17 0
10 11 12 14 15 0
10 11 12 14 16 0
10 11 12 14 17 0
10 11 12 15 16 0
10 11 12 15 17 0
10 11 12 16 17 0
10 11 13 14 15 0
10 11 13 14 16 0
10 11 13 14 17 0
10 11 13 15 16 0
10 11 13 15 17 0
10 11 13 16 17 0
10 11 14 15 16 0
10 11 14 15 17 0
10 11 14 16 17 0
10 11 15 16 17 0
10 12 13 14 15 0
10 12 13 14 16 0
10 12 13 14 17 0
10 12 13 15 16 0
10 12 13 15 17 0
10 12 13 16 17 0
10 12 14 15 16 0
10 12 14 15 17 0
10 12 14 16 17 0
10 12 15 16 17 0
10 13 14 15 16 0
10 13 14 15 17 0
10 13 14 16 17 0
10 13 15 16 17 0
10 14 15 16 17 0
11 12 13 14 15 0
11 12 13 14 16 0
11 12 13 14 17 0
11 12 13 15 16 0
11 12 13 15 17 0
11 12 13 16 17 0
11 12 14 15 16 0
11 12 14 15 17 0
11 12 14 16 17 0
11 12 15 16 17 0
11 13 14 15 16 0
11 13 14 15 17 0
11 13 14 16 17 0
11 13 15 16 17 0
11 14 15 16 17 0
12 13 14 15 16 0
12 13 14 15 17 0
12 13 14 16 17 0
12 13 15 16 17 0
12 14 15 16 17 0
13 14 15 16 17 0
18 19 20 21 22 23 0
18 19 20 21 22 24 0
18 19 20 21 22 25 0
18 19 20 21 22 26 0
18 19 20 21 22 27 0
18 19 20 21 23 24 0
18 19 20 21 23 25 0
18 19 20 21 23 26 0
18 19 20 21 23 27 0
18 19 20 21 24 25 0
18 19 20 21 24 26 0
18 19 20 21 24 27 0
18 19 20 21 25 26 0
18 19 20 21 25 27 0
18 19 20 21 26 27 0
18 19 20 22 23 24 0
18 19 20 22 23 25 0
18 19 20 22 23 26 0
18 19 20 22 23 27 0
18 19 20 22 24 25 0
18 19 20 22 24 26 0
18 19 20 22 24 27 0
18 19 20 22 25 26 0
18 19 20 22 25 27 0
18 19 20 22 26 27 0
18 19 20 23 24 25 0
18 19 20 23 24 26 0
18 19 20 23 24 27 0
18 19 20 23 25 26 0
18 19 20 23 25 27 0
18 19 20 23 26 27 0
18 19 20 24 25 26 0
18 19 20 24 25 27 0
18 19 20 24 26 27 0
18 19 20 25 26 27 0
18 19 21 22 23 24 0
18 19 21 22 23 25 0
18 19 21 22 23 26 0
18 19 21 22 23 27 0
18 19 21 22 24 25 0
18 19 21 22 24 26 0
18 19 21 22 24 27 0
18 19 21 22 25 26 0
18 19 21 22 25 27 0
18 19 21 22 26 27 0
18 19 21 23 24 25 0
18 19 21 23 24 26 0
18 19 21 23 24 27 0
18 19 21 23 25 26 0
18 19 21 23 25 27 0
18 19 21 23 26 27 0
18 19 21 24 25 26 0
18 19 21 24 25 27 0
18 19 21 24 26 27 0
18 19 21 25 26 27 0
18 19 22 23 24 25 0
18 19 22 23 24 26 0
18 19 22 23 24 27 0
18 19 22 23 25 26 0
18 19 22 23 25 27 0
18 19 22 23 26 27 0
18 19 22 24 25 26 0
18 19 22 24 25 27 0
18 19 22 24 26 27 0
18 19 22 25 26 27 0
18 19 23 24 25 26 0
18 19 23 24 25 27 0
18 19 23 24 26 27 0
18 19 23 25 26 27 0
18 19 24 25 26 27 0
18 20 21 22 23 24 0
18 20 21 22 23 25 0
18 20 21 22 23 26 0
18 20 21 22 23 27 0
18 20 21 22 24 25 0
18 20 21 22 24 26 0
18 20 21 22 24 27 0
18 20 21 22 25 26 0
18 20 21 22 25 27 0
18 20 21 22 26 27 0
18 20 21 23 24 25 0
18 20 21 23 24 26 0
18 20 21 23 24 27 0
18 20 21 23 25 26 0
18 20 21 23 25 27 0
18 20 21 23 26 27 0
18 20 21 24 25 26 0
18 20 21 24 25 27 0
18 20 21 24 26 27 0
18 20 21 25 26 27 0
18 20 22 23 24 25 0
18 20 22 23 24 26 0
18 20 22 23 24 27 0
18 20 22 23 25 26 0
18 20 22 23 25 27 0
18 20 22 23 26 27 0
18 20 22 24 25 26 0
18 20 22 24 25 27 0
18 20 22 24 26 27 0
18 20 22 25 26 27 0
18 20 23 24 25 26 0
18 20 23 24 25 27 0
18 20 23 24 26 27 0
18 20 23 25 26 27 0
18 20 24 25 26 27 0
18 21 22 23 24 25 0
18 21 22 23 24 26 0
18 21 22 23 24 27 0
18 21 22 23 25 26 0
18 21 22 23 25 27 0
18 21 22 23 26 27 0
18 21 22 24 25 26 0
18 21 22 24 25 27 0
18 21 22 24 26 27 0
18 21 22 25 26 27 0
18 21 23 24 25 26 0
18 21 23 24 25 27 0
18 21 23 24 26 27 0
18 21 23 25 26 27 0
18 21 24 25 26 27 0
18 22 23 24 25 26 0
18 22 23 24 25 27 0
18 22 23 24 26 27 0
18 22 23 25 26 27 0
18 22 24 25 26 27 0
18 23 24 25 26 27 0
19 20 21 22 23 24 0
19 20 21 22 23 25 0
19 20 21 22 23 26 0
19 20 21 22 23 27 0
19 20 21 22 24 25 0
19 20 21 22 24 26 0
19 20 21 22 24 27 0
19 20 21 22 25 26 0
19 20 21 22 25 27 0
19 20 21 22 26 27 0
19 20 21 23 24 25 0
19 20 21 23 24 26 0
19 20 21 23 24 27 0
19 20 21 23 25 26 0
19 20 21 23 25 27 0
19 20 21 23 26 27 0
19 20 21 24 25 26 0
19 20 21 24 25 27 0
19 20 21 24 26 27 0
19 20 21 25 26 27 0
19 20 22 23 24 25 0
19 20 22 23 24 26 0
19 20 22 23 24 27 0
19 20 22 23 25 26 0
19 20 22 23 25 27 0
19 20 22 23 26 27 0
19 20 22 24 25 26 0
19 20 22 24 25 27 0
19 20 22 24 26 27 0
19 20 22 25 26 27 0
19 20 23 24 25 26 0
19 20 23 24 25 27 0
19 20 23 24 26 27 0
19 20 23 25 26 27 0
19 20 24 25 26 27 0
19 21 22 23 24 25 0
19 21 22 23 24 26 0
19 21 22 23 24 27 0
19 21 22 23 25 26 0
19 21 22 23 25 27 0
19 21 22 23 26 27 0
19 21 22 24 25 26 0
19 21 22 24 25 27 0
19 21 22 24 26 27 0
19 21 22 25 26 27 0
19 21 23 24 25 26 0
19 21 23 24 25 27 0
19 21 23 24 26 27 0
19 21 23 25 26 27 0
19 21 24 25 26 27 0
19 22 23 24 25 26 0
19 22 23 24 25 27 0
19 22 23 24 26 27 0
19 22 23 25 26 27 0
19 22 24 25 26 27 0
19 23 24 25 26 27 0
20 21 22 23 24 25 0
20 21 22 23 24 26 0
20 21 22 23 24 27 0
20 21 22 23 25 26 0
20 21 22 23 25 27 0
20 21 22 23 26 27 0
20 21 22 24 25 26 0
20 21 22 24 25 27 0
20 21 22 24 26 27 0
20 21 22 25 26 27 0
20 21 23 24 25 26 0
20 21 23 24 25 27 0
20 21 23 24 26 27 0
20 21 23 25 26 27 0
20 21 24 25 26 27 0
20 22 23 24 25 26 0
20 22 23 24 25 27 0
20 22 23 24 26 27 0
20 22 23 25 26 27 0
20 22 24 25 26 27 0
20 23 24 25 26 27 0
21 22 23 24 25 26 0
21 22 23 24 25 27 0
21 22 23 24 26 27 0
21 22 23 25 26 27 0
21 22 24 25 26 27 0
21 23 24 25 26 27 0
22 23 24 25 26 27 0
28 29 30 31 32 0
28 29 30 31 33 0
28 29 30 31 34 0
28 29 30 31 35 0
28 29 30 31 36 0
28 29 30 32 33 0
28 29 30 32 34 0
28 29 30 32 35 0
28 29 30 32 36 0
28 29 30 33 34 0
28 29 30 33 35 0
28 29 30 33 36 0
28 29 30 34 35 0
28 29 30 34 36 0
28 29 30 35 36 0
28 29 31 32 33 0
28 29 31 32 34 0
28 29 31 32 35 0
28 29 31 32 36 0
28 29 31 33 34 0
28 29 31 33 35 0
28 29 31 33 36 0
28 29 31 34 35 0
28 29 31 34 36 0
28 29 31 35 36 0
28 29 32 33 34 0
28 29 32 33 35 0
28 29 32 33 36 0
28 29 32 34 35 0
28 29 32 34 36 0
28 29 32 35 36 0
28 29 33 34 35 0
28 29 33 34 36 0
28 29 33 35 36 0
28 29 34 35 36 0
28 30 31 32 33 0
28 30 31 32 34 0
28 30 31 32 35 0
28 30 31 32 36 0
28 30 31 33 34 0
28 30 31 33 35 0
28 30 31 33 36 0
28 30 31 34 35 0
28 30 31 34 36 0
28 30 31 35 36 0
28 30 32 33 34 0
28 30 32 33 35 0
28 30 32 33 36 0
28 30 32 34 35 0
28 30 32 34 36 0
28 30 32 35 36 0
28 30 33 34 35 0
28 30 33 34 36 0
28 30 33 35 36 0
28 30 34 35 36 0
28 31 32 33 34 0
28 31 32 33 35 0
28 31 32 33 36 0
28 31 32 34 35 0
28 31 32 34 36 0
28 31 32 35 36 0
28 31 33 34 35 0
28 31 33 34 36 0
28 31 33 35 36 0
28 31 34 35 36 0
28 32 33 34 35 0
28 32 33 34 36 0
28 32 33 35 36 0
28 32 34 35 36 0
28 33 34 35 36 0
29 30 31 32 33 0
29 30 31 32 34 0
29 30 31 32 35 0
29 30 31 32 36 0
29 30 31 33 34 0
29 30 31 33 35 0
29 30 31 33 36 0
29 30 31 34 35 0
29 30 31 34 36 0
29 30 31 35 36 0
29 30 32 33 34 0
29 30 32 33 35 0
29 30 32 33 36 0
29 30 32 34 35 0
29 30 32 34 36 0
29 30 32 35 36 0
29 30 33 34 35 0
29 30 33 34 36 0
29 30 33 35 36 0
29 30 34 35 36 0
29 31 32 33 34 0
29 31 32 33 35 0
29 31 32 33 36 0
29 31 32 34 35 0
29 31 32 34 36 0
29 31 32 35 36 0
29 31 33 34 35 0
29 31 33 34 36 0
29 31 33 35 36 0
29 31 34 35 36 0
29 32 33 34 35 0
29 32 33 34 36 0
29 32 33 35 36 0
29 32 34 35 36 0
29 33 34 35 36 0
30 31 32 33 34 0
30 31 32 33 35 0
30 31 32 33 36 0
30 31 32 34 35 0
30 31 32 34 36 0
30 31 32 35 36 0
30 31 33 34 35 0
30 31 33 34 36 0
30 31 33 35 36 0
30 31 34 35 36 0
30 32 33 34 35 0
30 32 33 34 36 0
30 32 33 35 36 0
30 32 34 35 36 0
30 33 34 35 36 0
31 32 33 34 35 0
31 32 33 34 36 0
31 32 33 35 36 0
31 32 34 35 36 0
31 33 34 35 36 0
32 33 34 35 36 0
-1 -10 -18 0
-1 -10 -28 0
-1 -18 -28 0
-10 -18 -28 0
-2 -11 0
-2 -19 0
-11 -19 0
-12 -20 0
-12 -29 0
-20 -29 0
-3 -13 -21 0
-3 -13 -30 0
-3 -21 -30 0
-13 -21 -30 0
-4 -14 -22 0
-4 -14 -31 0
-4 -22 -31 0
-14 -22 -31 0
-5 -15 -23 0
-5 -15 -32 0
-5 -23 -32 0
-15 -23 -32 0
-6 -16 -24 0
-6 -16 -33 0
-6 -24 -33 0
-16 -24 -33 0
-7 -25 0
-7 -34 0
-25 -34 0
-8 -26 0
-8 -35 0
-26 -35 0
-9 -17 -27 0
-9 -17 -36 0
-9 -27 -36 0
-17 -27 -36 0